* ENCODING=ISO-8859-1
NAME          CPLEX
ROWS
 N  obj1    
 G  c1      
 G  c2      
 G  c3      
 G  c4      
 G  c5      
 G  c6      
 G  c7      
 G  c8      
 G  c9      
 G  c10     
 G  c11     
 G  c12     
 G  c13     
 G  c14     
 G  c15     
 G  c16     
 G  c17     
 G  c18     
 G  c19     
 G  c20     
 G  c21     
 G  c22     
 G  c23     
 G  c24     
 G  c25     
 G  c26     
 G  c27     
 G  c28     
 G  c29     
 G  c30     
 G  c31     
 G  c32     
 G  c33     
 G  c34     
 G  c35     
COLUMNS
    MARK0000  'MARKER'                 'INTORG'
    x1        obj1                            1
    x1        c29                           122
    x2        obj1                            1
    x2        c15                           923
    x2        c20                           117
    x2        c24                           200
    x2        c30                           904
    x3        obj1                            1
    x3        c6                            472
    x3        c10                           156
    x3        c35                           788
    x4        obj1                            1
    x4        c8                            438
    x4        c11                           284
    x4        c13                           970
    x4        c16                           561
    x4        c19                           929
    x4        c24                           368
    x5        obj1                            1
    x5        c9                            292
    x5        c11                           170
    x5        c20                           985
    x5        c21                           117
    x6        obj1                            1
    x6        c5                            456
    x6        c18                           108
    x6        c28                           238
    x6        c31                           960
    x7        obj1                            1
    x7        c1                            548
    x7        c10                           855
    x8        obj1                            1
    x8        c12                           425
    x8        c13                           583
    x8        c16                           597
    x8        c21                           237
    x8        c29                           214
    x9        obj1                            1
    x9        c29                           967
    x10       obj1                            1
    x10       c1                            673
    x10       c5                            972
    x10       c9                            234
    x10       c10                           737
    x10       c20                           860
    x11       obj1                            1
    x11       c4                            531
    x11       c7                            385
    x11       c10                           570
    x11       c15                           181
    x11       c17                           577
    x12       obj1                            1
    x12       c13                           328
    x12       c16                           448
    x12       c30                           222
    x12       c34                           121
    x13       obj1                            1
    x13       c2                            465
    x13       c5                            955
    x13       c6                            160
    x13       c22                           432
    x14       obj1                            1
    x14       c11                           564
    x14       c12                           401
    x14       c14                           247
    x14       c27                           615
    x14       c28                           588
    x15       obj1                            1
    x15       c5                            998
    x15       c16                           176
    x15       c19                           266
    x15       c25                           149
    x16       obj1                            1
    x16       c14                           701
    x16       c24                           588
    x16       c26                           456
    x16       c30                           437
    x17       obj1                            1
    x17       c6                            306
    x17       c28                           355
    x18       obj1                            1
    x18       c3                            281
    x18       c25                           462
    x18       c31                           805
    x19       obj1                            1
    x19       c14                           354
    x19       c18                           564
    x19       c19                           188
    x20       obj1                            1
    x20       c20                           211
    x20       c26                           535
    x21       obj1                            1
    x21       c2                            634
    x21       c6                            618
    x21       c19                           294
    x22       obj1                            1
    x22       c19                           760
    x23       obj1                            1
    x23       c9                            768
    x23       c10                           406
    x23       c30                           623
    x24       obj1                            1
    x24       c10                           295
    x24       c24                           530
    x25       obj1                            1
    x25       c22                           773
    x25       c31                           804
    x26       obj1                            1
    x26       c2                            405
    x26       c7                            647
    x26       c13                           554
    x26       c15                           104
    x26       c31                           550
    x26       c35                           694
    x27       obj1                            1
    x27       c8                            343
    x27       c17                           522
    x27       c29                           820
    x28       obj1                            1
    x28       c4                            566
    x28       c11                           332
    x28       c16                           525
    x29       obj1                            1
    x29       c3                            216
    x29       c7                            808
    x29       c18                           298
    x30       obj1                            1
    x30       c3                            239
    x30       c15                           627
    x30       c21                           176
    x30       c29                           525
    x30       c33                           980
    x30       c34                           184
    x31       obj1                            1
    x31       c13                           669
    x32       obj1                            1
    x32       c8                            459
    x32       c17                           707
    x33       obj1                            1
    x33       c18                           453
    x34       obj1                            1
    x34       c2                            827
    x34       c4                            866
    x34       c7                            754
    x34       c8                            833
    x34       c27                           793
    x34       c30                           856
    x35       obj1                            1
    x35       c1                            167
    x35       c8                            323
    x35       c14                           744
    x35       c18                           283
    x35       c33                           823
    x36       obj1                            1
    x36       c22                           329
    x37       obj1                            1
    x37       c5                            213
    x37       c8                            297
    x37       c16                           678
    x37       c27                           544
    x38       obj1                            1
    x38       c7                            542
    x38       c31                           381
    x39       obj1                            1
    x39       c2                            382
    x39       c6                            274
    x39       c27                           441
    x39       c31                           790
    x39       c32                           928
    x40       obj1                            1
    x40       c3                            540
    x40       c15                           633
    x40       c19                           620
    x40       c21                           213
    x40       c33                           410
    x41       obj1                            1
    x41       c8                            949
    x41       c14                           204
    x41       c17                           694
    x41       c33                           282
    x42       obj1                            1
    x42       c8                            130
    x42       c22                           957
    x42       c25                           501
    x42       c35                           313
    x43       obj1                            1
    x43       c25                           647
    x43       c32                           319
    x44       obj1                            1
    x44       c31                           763
    x44       c34                           716
    x45       obj1                            1
    x45       c11                           233
    x45       c13                           347
    x45       c28                           467
    x46       obj1                            1
    x46       c6                            529
    x46       c24                           437
    x46       c28                           475
    x46       c31                           138
    x46       c32                           332
    x47       obj1                            1
    x47       c5                            672
    x47       c19                           484
    x47       c35                           623
    x48       obj1                            1
    x48       c3                            604
    x48       c11                           988
    x48       c25                           685
    x48       c35                           108
    x49       obj1                            1
    x49       c1                            549
    x49       c2                            507
    x50       obj1                            1
    x50       c8                            656
    x50       c9                            271
    x50       c20                           471
    x50       c21                           935
    x50       c23                           830
    x51       obj1                            1
    x51       c20                           126
    x52       obj1                            1
    x52       c6                            348
    x52       c14                           951
    x52       c15                           782
    x52       c24                           598
    x52       c25                           429
    x52       c28                           717
    x52       c29                           247
    x52       c31                           677
    x52       c34                           375
    x52       c35                           912
    x53       obj1                            1
    x53       c10                           537
    x53       c16                           759
    x53       c21                           604
    x53       c33                           648
    x54       obj1                            1
    x54       c24                           477
    x54       c28                           830
    x54       c30                           301
    x54       c32                           580
    x55       obj1                            1
    x55       c11                           330
    x55       c14                           298
    x56       obj1                            1
    x56       c5                            496
    x56       c9                            242
    x56       c24                           911
    x57       obj1                            1
    x57       c10                           539
    x57       c11                           915
    x57       c27                           169
    x58       obj1                            1
    x58       c4                            514
    x58       c6                            355
    x58       c27                           384
    x59       obj1                            1
    x59       c1                            468
    x59       c6                            334
    x59       c7                            989
    x59       c23                           874
    x59       c24                           873
    x60       obj1                            1
    x60       c15                           995
    x60       c25                           710
    x61       obj1                            1
    x61       c6                            253
    x61       c12                           250
    x61       c13                           851
    x61       c17                           987
    x61       c23                           380
    x61       c24                           152
    x61       c33                           486
    x61       c34                           467
    x62       obj1                            1
    x62       c13                           761
    x62       c17                           128
    x62       c33                           532
    x63       obj1                            1
    x63       c12                           328
    x63       c15                           774
    x63       c20                           165
    x63       c22                           665
    x63       c25                           337
    x63       c34                           275
    x64       obj1                            1
    x64       c13                           862
    x65       obj1                            1
    x65       c26                           921
    x66       obj1                            1
    x66       c18                           403
    x67       obj1                            1
    x68       obj1                            1
    x68       c11                           501
    x68       c21                           845
    x68       c29                           912
    x69       obj1                            1
    x69       c4                            276
    x69       c8                            499
    x69       c13                           504
    x69       c19                           736
    x69       c23                           704
    x69       c34                           581
    x69       c35                           806
    x70       obj1                            1
    x70       c2                            535
    x70       c15                           228
    x70       c17                           303
    x70       c22                           441
    x70       c25                           840
    x70       c26                           754
    x70       c31                           509
    MARK0001  'MARKER'                 'INTEND'
RHS
    rhs       c1                           1203
    rhs       c2                           1878
    rhs       c3                            940
    rhs       c4                           1377
    rhs       c5                           2381
    rhs       c6                           1825
    rhs       c7                           2063
    rhs       c8                           2464
    rhs       c9                            904
    rhs       c10                          2048
    rhs       c11                          2159
    rhs       c12                           702
    rhs       c13                          3215
    rhs       c14                          1750
    rhs       c15                          2624
    rhs       c16                          1872
    rhs       c17                          1959
    rhs       c18                          1055
    rhs       c19                          2139
    rhs       c20                          1468
    rhs       c21                          1564
    rhs       c22                          1799
    rhs       c23                          1394
    rhs       c24                          2567
    rhs       c25                          2380
    rhs       c26                          1333
    rhs       c27                          1473
    rhs       c28                          1835
    rhs       c29                          1904
    rhs       c30                          1672
    rhs       c31                          3189
    rhs       c32                          1080
    rhs       c33                          2081
    rhs       c34                          1360
    rhs       c35                          2122
BOUNDS
 LI bnd       x1        0
 LI bnd       x2        0
 LI bnd       x3        0
 LI bnd       x4        0
 LI bnd       x5        0
 LI bnd       x6        0
 LI bnd       x7        0
 LI bnd       x8        0
 LI bnd       x9        0
 LI bnd       x10       0
 LI bnd       x11       0
 LI bnd       x12       0
 LI bnd       x13       0
 LI bnd       x14       0
 LI bnd       x15       0
 LI bnd       x16       0
 LI bnd       x17       0
 LI bnd       x18       0
 LI bnd       x19       0
 LI bnd       x20       0
 LI bnd       x21       0
 LI bnd       x22       0
 LI bnd       x23       0
 LI bnd       x24       0
 LI bnd       x25       0
 LI bnd       x26       0
 LI bnd       x27       0
 LI bnd       x28       0
 LI bnd       x29       0
 LI bnd       x30       0
 LI bnd       x31       0
 LI bnd       x32       0
 LI bnd       x33       0
 LI bnd       x34       0
 LI bnd       x35       0
 LI bnd       x36       0
 LI bnd       x37       0
 LI bnd       x38       0
 LI bnd       x39       0
 LI bnd       x40       0
 LI bnd       x41       0
 LI bnd       x42       0
 LI bnd       x43       0
 LI bnd       x44       0
 LI bnd       x45       0
 LI bnd       x46       0
 LI bnd       x47       0
 LI bnd       x48       0
 LI bnd       x49       0
 LI bnd       x50       0
 LI bnd       x51       0
 LI bnd       x52       0
 LI bnd       x53       0
 LI bnd       x54       0
 LI bnd       x55       0
 LI bnd       x56       0
 LI bnd       x57       0
 LI bnd       x58       0
 LI bnd       x59       0
 LI bnd       x60       0
 LI bnd       x61       0
 LI bnd       x62       0
 LI bnd       x63       0
 LI bnd       x64       0
 LI bnd       x65       0
 LI bnd       x66       0
 LI bnd       x67       0
 LI bnd       x68       0
 LI bnd       x69       0
 LI bnd       x70       0
ENDATA
